\ File written by Highs .lp filereader
min
 obj: +1 x0 +1 x1 +1 x2 
st
 con0lo: +1 x0 +1 x1 >= +1
 con1lo: +4 x0 +2 x1 +2 x2 >= +4
 con2lo: +2 x1 +3 x2 >= +4
 con3lo: +4 x0 +4 x1 +4 x2 >= +8
 con4lo: +1 x0 +2 x1 +2 x2 >= +4
 con5lo: +3 x0 +4 x1 +4 x2 >= +8
 con6lo: +2 x0 +3 x1 +3 x2 >= +6
bounds
 +0 <= x0 <= +1
 +0 <= x1 <= +4
 +0 <= x2 <= +4
end
